; benchmark generated from python API
(set-info :status unknown)
(declare-fun S_2 () Real)
(declare-fun C () Real)
(declare-fun A_1 () Real)
(declare-fun L_1 () Real)
(declare-fun S_3 () Real)
(declare-fun S_5 () Real)
(declare-fun S_4 () Real)
(declare-fun S_1 () Real)
(declare-fun A_0 () Real)
(declare-fun L_0 () Real)
(declare-fun A_3 () Real)
(declare-fun L_3 () Real)
(declare-fun S_0 () Real)
(declare-fun A_5 () Real)
(declare-fun L_4 () Real)
(declare-fun L0 () Real)
(declare-fun A_2 () Real)
(declare-fun L_2 () Real)
(declare-fun A_4 () Real)
(assert
 (let (($x42 (>= L0 0.0)))
 (let (($x323 (>= C 5.0)))
 (let (($x69 (= L_2 L_1)))
 (let (($x80528 (or $x69 (<= (+ (* (- 3.0) C) L_2 (* (- 1.0) A_2) S_5) (- 5.0)))))
 (let (($x41300 (<= (+ (* 3.0 C) (* (- 1.0) S_4) S_0) 0.0)))
 (let (($x40755 (<= 0.0 (+ (* (- 1.0) L_1) A_1 (* 2.0 C) (* (- 1.0) A_3) L_2))))
 (let (($x2142 (<= (+ (* (- 1.0) L_2) A_3 (* (- 1.0) S_4)) 0.0)))
 (let (($x81541 (or $x69 (<= (+ (* (- 1.0) L_0) C A_1 L_2 (* (- 1.0) A_2)) (- 5.0)) (<= (+ (* 2.0 C) L_2 (* (- 1.0) A_2) S_0) (- 5.0)))))
 (let (($x89 (= L_4 L_3)))
 (let (($x47164 (or $x89 (<= (+ (* (- 1.0) C) (* (- 1.0) A_4) L_4 S_5) (- 5.0)))))
 (let (($x41573 (<= (+ (* 2.0 C) S_1 (* (- 1.0) S_4)) 0.0)))
 (let (($x43089 (<= (+ (* 4.0 C) (* (- 1.0) A_4) L_4 S_0) (- 5.0))))
 (let ((?x595 (* (- 1.0) A_1)))
 (let ((?x41531 (+ L_1 ?x595 C S_0)))
 (let (($x41936 (<= 0.0 ?x41531)))
 (let (($x41428 (>= (+ (* (- 1.0) A_3) L_1 (* (- 1.0) C) (* (- 1.0) L_4) A_4) 5.0)))
 (let ((?x378 (* (- 1.0) L_1)))
 (let ((?x39125 (+ A_2 ?x378 C)))
 (let (($x40766 (<= (+ A_3 (* (- 1.0) L_3)) ?x39125)))
 (let (($x40782 (not $x40766)))
 (let (($x6417 (not (<= 0.0 (+ (* (- 1.0) L_3) L_1)))))
 (let ((?x562 (* (- 1.0) L_4)))
 (let ((?x318 (* (- 2.0) C)))
 (let ((?x591 (* (- 1.0) A_2)))
 (let ((?x44106 (+ ?x591 L_1 ?x318 ?x562 A_4)))
 (let (($x44169 (>= ?x44106 5.0)))
 (let (($x41226 (<= 0.0 (+ (* (- 1.0) C) A_3 ?x591))))
 (let (($x43517 (not $x41226)))
 (let (($x43117 (not (<= (+ C ?x378 (* (- 1.0) A_4) L_4 A_3) 0.0))))
 (let (($x2383 (= L_4 L_1)))
 (let (($x1983 (not (= L_1 L_3))))
 (let (($x81720 (or $x1983 $x2383 (not (<= A_3 (+ A_2 C))) $x41428 (<= (+ (* 2.0 C) L_1 (* (- 1.0) A_3) S_1) 0.0))))
 (let (($x41937 (not $x41936)))
 (let (($x40444 (not (<= 0.0 (+ (* (- 1.0) L_0) C A_1 L_1 ?x591)))))
 (let (($x3398 (<= (+ ?x378 A_3 (* (- 1.0) S_4)) 0.0)))
 (let ((?x583 (* (- 1.0) A_4)))
 (let ((?x335 (* (- 1.0) C)))
 (let ((?x2127 (* (- 2.0) L_2)))
 (let ((?x41347 (+ A_3 ?x2127 ?x335 L_4 ?x583 A_2)))
 (let (($x45680 (<= (+ (* (- 3.0) C) (* (- 1.0) L_2) (* (- 1.0) S_1) A_3) 0.0)))
 (let (($x41040 (<= (+ C (* (- 1.0) L_2) ?x583 L_4 A_3) 0.0)))
 (let (($x44216 (not $x41040)))
 (let (($x42571 (= (+ (* 2.0 C) A_2 (* (- 1.0) L_2) ?x583 L_4) 0.0)))
 (let ((?x837 (* 2.0 C)))
 (let ((?x41904 (+ ?x837 L_4 ?x583 A_2)))
 (let (($x41905 (<= L_2 ?x41904)))
 (let (($x41906 (not $x41905)))
 (let (($x2971 (= L_4 L_2)))
 (let (($x80255 (or $x89 $x41906 $x42571 (not (<= 0.0 (+ L_1 (* (- 1.0) L_2) ?x595 ?x318 A_3))))))
 (let (($x43495 (<= (+ (* (- 4.0) C) (* (- 1.0) L_2) A_3 (* (- 1.0) S_0)) 0.0)))
 (let (($x80810 (or $x89 (>= S_0 (+ A_3 ?x2127 ?x318 L_4 ?x583 A_2)) (not $x43495))))
 (let (($x43536 (<= (+ L_0 (* (- 3.0) C) (* (- 1.0) L_2) (* (- 1.0) A_0) A_3) 0.0)))
 (let (($x42557 (<= (+ ?x335 (* (- 1.0) L_2) A_3 (* (- 1.0) S_3)) 0.0)))
 (let (($x1191 (not (<= 0.0 (+ ?x378 L_0)))))
 (let (($x80611 (or $x89 $x1191 $x6417 (<= 0.0 (+ ?x318 ?x591 A_4 ?x562 L_0)) (<= (+ L_0 (* (- 3.0) C) ?x378 (* (- 1.0) A_0) A_3) 0.0))))
 (let ((?x9401 (+ A_3 ?x2127 L_4 ?x583 A_2)))
 (let (($x9404 (<= (+ A_1 (* (- 1.0) L_0)) ?x9401)))
 (let (($x41353 (>= (+ (* (- 1.0) A_3) L_2 ?x335 ?x562 A_4) 5.0)))
 (let (($x41561 (not $x41353)))
 (let (($x43409 (<= (+ (* 3.0 C) ?x583 L_4 A_1 (* (- 1.0) L_0)) (- 5.0))))
 (let (($x41238 (<= (+ ?x335 ?x591 A_3) 0.0)))
 (let (($x41239 (not $x41238)))
 (let (($x41032 (not (<= 0.0 (+ A_1 ?x837 (* (- 1.0) A_3))))))
 (let (($x40040 (>= S_4 ?x39125)))
 (let (($x3232 (not (= L_0 L_2))))
 (let (($x80781 (or $x89 $x3232 (not (<= 0.0 (+ C A_1 ?x591))) $x43517 (>= (+ ?x591 L_0 ?x318 ?x562 A_4) 5.0) (not (<= 0.0 (+ ?x837 L_0 ?x591 S_0))))))
 (let (($x79864 (or $x89 $x41353 (<= 0.0 (+ C S_1 ?x591 L_2)) (<= (+ (* 3.0 C) ?x583 L_4 S_1) (- 5.0)))))
 (let (($x41810 (<= (+ ?x837 L_3 (* (- 1.0) A_3) S_1) (- 5.0))))
 (let ((?x392 (* (- 1.0) L_3)))
 (let ((?x40775 (+ ?x591 L_1 ?x335 ?x392 A_3)))
 (let (($x40852 (>= ?x40775 5.0)))
 (let (($x1600 (= L_3 L_1)))
 (let (($x888 (not (= L_1 L_2))))
 (let (($x42995 (<= (+ ?x318 (* (- 1.0) L_2) (* (- 1.0) S_2) A_3) 0.0)))
 (let ((?x694 (* (- 1.0) L_0)))
 (let ((?x587 (* (- 1.0) A_3)))
 (let ((?x1789 (* 2.0 L_2)))
 (let (($x47749 (or $x89 (not $x9404) (= (+ A_1 ?x1789 A_4 ?x587 ?x591 ?x562 ?x694) 0.0) (<= 0.0 (+ L_0 (* (- 1.0) L_2) ?x595 ?x318 A_3)))))
 (let (($x41104 (<= (+ ?x837 (* (- 1.0) S_3) S_0) 0.0)))
 (let (($x39336 (<= (+ ?x694 C A_1 (* (- 1.0) S_3)) 0.0)))
 (let ((?x1054 (+ A_2 ?x378)))
 (let (($x1643 (>= S_3 ?x1054)))
 (let (($x43403 (<= (+ ?x837 A_1 ?x694 (* (- 1.0) S_4)) 0.0)))
 (let (($x40384 (<= 0.0 (+ A_1 C ?x591))))
 (let (($x45840 (or $x888 $x1600 $x40852 (<= (+ (* 3.0 C) L_3 ?x587 S_0) (- 5.0)) $x41936)))
 (let (($x40776 (<= 0.0 ?x40775)))
 (let (($x40777 (not $x40776)))
 (let (($x41139 (not (= 0.0 (+ C L_3 ?x587 A_2 (* (- 1.0) L_2))))))
 (let (($x80482 (or (<= 0.0 (+ ?x694 C A_1 L_2 ?x591)) $x41139 (not (<= 0.0 (+ L_0 ?x595 C S_0))) $x43403)))
 (let (($x59 (= L_1 L_0)))
 (let (($x82399 (or $x59 (<= S_2 (+ A_3 (* (- 2.0) L_1) ?x837 L_4 ?x583 A_1)))))
 (let (($x48602 (or $x59 (<= S_0 (+ A_1 A_2 (* (- 2.0) L_1) C L_4 ?x583)))))
 (let (($x41591 (<= 0.0 (+ (* 3.0 C) L_4 ?x583 ?x378 A_1))))
 (let (($x41592 (not $x41591)))
 (let (($x39309 (= (+ L_1 ?x595 (* (- 3.0) C) A_4 ?x562) 0.0)))
 (let (($x79686 (or $x89 $x39309 $x40766 $x41592 (>= S_2 (+ A_2 (* (- 2.0) L_1) ?x837 L_4 ?x583 A_1)))))
 (let (($x48149 (or $x89 (>= S_0 (+ A_1 A_2 (* (- 2.0) L_1) L_4 ?x583)) $x39309 $x40777 $x41592)))
 (let (($x47713 (or $x59 (<= S_1 (+ A_2 (* (- 2.0) L_1) ?x837 L_4 ?x583 A_1)))))
 (let (($x40509 (or $x89 $x6417 (>= S_1 (+ A_1 (* (- 2.0) L_1) A_3 L_4 ?x583)) $x39309 $x41592 (>= S_1 (+ A_1 A_2 (* (- 2.0) L_1) C L_4 ?x583)))))
 (let (($x42800 (or $x2971 (>= S_1 (+ A_1 ?x378 A_3 (* (- 1.0) L_2) L_4 ?x583)) $x39309 $x41226 $x41592)))
 (let (($x82848 (or $x89 $x6417 $x39309 $x41239 $x41592 (<= (+ ?x318 ?x378 (* (- 1.0) S_2) A_3) 0.0))))
 (let (($x79142 (or $x2971 $x39309 $x41226 $x41592 (>= S_0 (+ A_1 ?x378 A_3 (* (- 1.0) L_2) L_4 ?x583 ?x335)))))
 (let (($x49741 (or $x1983 $x2383 $x39309 $x41239 $x41592 (>= S_0 (+ A_1 (* (- 2.0) L_1) A_3 L_4 ?x583 ?x335)))))
 (let (($x44313 (not $x42995)))
 (let (($x48018 (or $x2971 $x41239 (>= S_2 (+ A_3 (* (- 1.0) L_2) C L_4 ?x583 ?x378 A_1)) $x44313)))
 (let (($x53491 (or $x89 $x6417 (<= (+ A_1 (* (- 2.0) L_1) A_3 L_4 ?x583) (+ A_0 ?x694)) $x39309 $x41592 (<= (+ A_1 A_2 (* (- 2.0) L_1) C L_4 ?x583) (+ A_0 ?x694)))))
 (let (($x79900 (or $x59 (<= S_0 (+ A_1 ?x378 A_3 (* (- 1.0) L_2) L_4 ?x583)))))
 (let (($x11676 (not (= L_2 L_4))))
 (let (($x47452 (or $x89 $x1643 $x6417 $x39309 $x41592 (>= S_3 (+ A_3 (* (- 2.0) L_1) ?x837 L_4 ?x583 A_1)))))
 (let (($x44543 (or $x59 (<= S_1 (+ A_2 (* (- 2.0) L_1) C L_3 ?x587 A_1)))))
 (let (($x40224 (<= 0.0 (+ ?x378 ?x837 L_3 ?x587 A_1))))
 (let (($x40863 (not $x40224)))
 (let ((?x544 (+ L_1 ?x595 ?x392 ?x318 A_3)))
 (let (($x558 (= ?x544 0.0)))
 (let (($x41990 (or $x558 $x1600 (>= S_0 (+ A_1 A_2 (* (- 2.0) L_1) L_3 ?x587 ?x335)) $x40777 $x40863)))
 (let (($x80279 (or $x59 (<= S_1 (+ A_3 (* (- 1.0) L_2) C L_4 ?x583 ?x378 A_1)))))
 (let (($x42597 (not (<= L_1 ?x41904))))
 (let (($x42591 (= (+ ?x837 A_2 ?x378 ?x583 L_4) 0.0)))
 (let (($x41546 (<= (+ C (* (- 1.0) S_2) S_0) 0.0)))
 (let (($x45533 (or $x89 $x6417 $x42591 (<= (+ ?x335 ?x378 A_3 (* (- 1.0) S_3)) 0.0) $x42597)))
 (let (($x40926 (not $x40852)))
 (let (($x79521 (or $x558 $x1600 (>= S_1 (+ A_1 A_2 (* (- 2.0) L_1) L_3 ?x587)) $x40863 $x40926)))
 (let (($x2884 (not (= L_0 L_1))))
 (let (($x2763 (= L_2 L_0)))
 (let (($x80774 (or $x558 $x888 $x1600 $x40863 (>= S_2 (+ A_2 (* (- 2.0) L_1) C L_3 ?x587 A_1)))))
 (let (($x7444 (<= 0.0 (+ ?x392 L_2))))
 (let (($x42044 (or $x558 $x1600 (<= (+ A_1 A_2 (* (- 2.0) L_1) L_3 ?x587) (+ A_0 ?x694)) $x40863 $x40926)))
 (let (($x40035 (<= 0.0 (+ C ?x583 A_3))))
 (let (($x1531 (not (= L_3 L_4))))
 (let (($x79 (= L_3 L_2)))
 (let (($x39562 (<= 0.0 (+ L_3 C ?x587 S_2))))
 (let (($x41 (>= L_0 L0)))
 (let (($x131 (>= S_1 S_0)))
 (let (($x134 (>= S_2 S_1)))
 (let (($x137 (>= S_3 S_2)))
 (let (($x140 (>= S_4 S_3)))
 (let (($x145 (>= A_1 A_0)))
 (let (($x146 (>= A_2 A_1)))
 (let (($x147 (>= A_3 A_2)))
 (let (($x148 (>= A_4 A_3)))
 (and (<= (+ A_4 ?x562) S_5) $x148 $x147 $x146 $x145 $x140 $x137 $x134 $x131 $x41 (or $x39562 (<= (+ C S_2 (* (- 1.0) S_4)) 0.0)) (or $x69 (not $x40384)) (or $x59 $x1191) (or $x59 $x40224) (or $x79 $x1531 $x40035) (or (not (<= 0.0 (+ L_0 (* (- 1.0) L_2)))) $x2763) (or $x59 $x69 (= (+ ?x378 A_1 C ?x591 L_2) 0.0)) (or $x59 $x888 $x40384) (<= S_4 (+ A_4 ?x392)) (or $x79 (<= (+ ?x335 L_3 ?x587 S_4) (- 5.0))) (<= (+ (* (- 3.0) C) (* (- 1.0) S_1) S_3) 0.0) (<= (+ (* (- 3.0) C) (* (- 1.0) S_3) S_5) 0.0) (<= S_2 ?x1054) (<= (+ ?x318 L_2 ?x587 S_5) 0.0) (or $x79 (<= (+ L_3 ?x587 S_3) (- 5.0))) (or $x558 $x888 $x1600 $x40852 $x40863) $x42044 (or $x558 $x1600 $x1643 $x40777 $x40863) (or $x79 $x89 (= (+ ?x562 A_4) (+ C ?x392 A_3))) (or (not $x40035) $x89) (or $x2971 (not (<= 0.0 (+ L_2 ?x562)))) (<= (+ (* (- 5.0) C) L_0 (* (- 1.0) A_0) S_5) 0.0) (or $x69 $x7444 (= (+ C L_3 ?x587 A_2 (* (- 1.0) L_2)) 0.0)) (<= (+ ?x335 L_3 ?x583 S_5) 0.0) $x80774 (or $x89 (<= (+ ?x583 L_4 S_4) (- 5.0))) (or $x2763 $x2884 (<= (+ ?x694 C A_1 L_2 ?x591) 0.0)) (or $x69 (<= (+ ?x318 L_2 ?x591 S_4) (- 5.0))) (or $x69 (<= (+ L_2 ?x591 S_2) (- 5.0))) (or (not $x39562) $x2142) (or $x89 (<= (+ C ?x583 L_4 S_3) (- 5.0))) (or $x79 (not $x7444)) (or $x59 (<= ?x41531 (- 5.0))) (or (not (<= ?x41531 (- 5.0))) $x41546) (or (not (= L_2 L_3)) $x2971 $x41040) (<= (+ (* (- 4.0) C) L_0 (* (- 1.0) A_0) S_4) 0.0) (<= (+ L_2 ?x587 S_3) 0.0) (or $x59 (<= (+ L_1 ?x595 S_1) (- 5.0))) (<= (+ ?x318 S_1 (* (- 1.0) S_0)) 0.0) (or $x888 $x1600 $x40776) (or $x69 $x41905) (<= (+ ?x318 (* (- 1.0) S_3) S_4) 0.0) (<= (+ (* (- 4.0) C) (* (- 1.0) S_1) S_4) 0.0) (or $x79 (<= (+ L_3 ?x318 ?x587 S_5) (- 5.0))) $x79521 (or $x558 $x1600 $x40040 $x40863 $x40926) (or $x89 $x39309 (<= ?x41347 (+ A_0 ?x694)) $x41561 $x41592) (or $x1643 (<= (+ C S_1 (* (- 1.0) S_3)) 0.0)) (<= (+ L_0 ?x595 S_1) 0.0) (or $x69 (not (= 0.0 (+ ?x378 A_1 C ?x591 L_2))) $x41104) $x45533 (<= (+ ?x318 ?x595 L_0 S_3) 0.0) (or $x69 $x11676 (<= S_2 (+ A_3 (* (- 1.0) L_2) C ?x583 A_2))) (or $x69 (<= S_2 (+ A_3 ?x2127 C L_4 ?x583 A_2))) (<= (+ (* (- 4.0) C) ?x595 L_0 S_5) 0.0) (or $x69 (not (= L_2 L_3)) $x41238) (or $x79 (<= (+ C L_3 ?x587 S_2) (- 5.0))) (or $x59 (<= S_0 (+ A_1 A_2 (* (- 2.0) L_1) L_3 ?x587))) (or (<= (+ ?x694 A_1 (* (- 1.0) S_2)) 0.0) $x41546) (or $x89 $x6417 $x41428 $x42591 $x42597) (or $x7444 $x41139 $x41573) $x80279 (<= (+ ?x318 L_1 ?x591 S_4) 0.0) (<= (+ (* (- 5.0) C) S_4 (* (- 1.0) S_0)) 0.0) (<= (+ (* (- 3.0) C) L_0 (* (- 1.0) A_0) S_3) 0.0) $x41990 (or $x59 (<= (+ L_1 ?x595 ?x335 S_2) (- 5.0))) (<= (+ ?x318 (* (- 1.0) A_0) L_0 S_2) 0.0) (or $x59 $x41591) $x44543 (<= (+ ?x318 S_2 (* (- 1.0) S_1)) 0.0) (<= S_3 ?x39125) (or $x59 $x1643 $x41104) (<= (+ (* (- 3.0) C) S_2 (* (- 1.0) S_0)) 0.0) $x47452 (or $x59 $x11676 (<= S_0 (+ A_1 ?x378 A_3 ?x583))) (or $x59 (not (= 0.0 ?x544)) $x41300) (<= (+ (* (- 3.0) C) (* (- 1.0) S_2) S_4) 0.0) $x79900 (<= (+ (* (- 4.0) C) (* (- 1.0) S_2) S_5) 0.0) (<= (+ (* (- 4.0) C) S_3 (* (- 1.0) S_0)) 0.0) (<= (+ (* (- 5.0) C) (* (- 1.0) S_1) S_5) 0.0) (or $x1983 $x2383 $x3398 (<= 0.0 ?x44106)) (<= (+ (* (- 6.0) C) S_5 (* (- 1.0) S_0)) 0.0) (or $x59 $x3398 $x6417 $x40040 $x41300) (or $x89 $x6417 $x39309 $x41428 $x41592 $x44169) $x53491 $x48018 $x49741 (or $x59 (<= (+ L_1 ?x595 ?x318 S_3) (- 5.0))) $x79142 $x82848 $x42800 $x40509 (or $x89 $x3398 $x6417 $x39309 $x40040 $x41592) $x47713 $x48149 $x79686 $x48602 $x82399 (or $x69 (<= (+ C L_2 ?x591 S_1) (- 5.0))) (or $x59 (<= (+ L_1 ?x595 (* (- 3.0) C) S_4) (- 5.0))) (or (not (<= 0.0 (+ L_1 ?x392))) $x3398 $x40040 $x41573) (<= S_5 (+ A_2 ?x378 (* 3.0 C))) (or $x7444 $x41139 $x41300 $x41936) (or $x69 $x39336 $x41104) (<= (+ (* (- 3.0) C) ?x595 L_0 S_4) 0.0) (or $x59 (<= (+ L_1 ?x595 (* (- 4.0) C) S_5) (- 5.0))) (or $x40040 $x41573 (not $x41810)) $x80482 (or $x3398 $x6417 $x40384 $x41937 $x43403) (or $x40040 $x41300 (<= 0.0 (+ L_3 (* 3.0 C) ?x587 S_0)) $x43403) (or $x1600 $x40384 $x40777 $x41937 (<= (+ ?x837 A_1 L_3 ?x587 ?x694) (- 5.0))) (or $x69 (<= (+ ?x335 L_2 ?x591 S_3) (- 5.0))) (or $x40040 $x40444 $x40926 $x41937) $x45840 (or $x40384 $x41937 $x43403 (<= 0.0 (+ ?x837 L_3 ?x587 A_1 ?x694))) (or $x1600 $x40444 $x40852 $x41937) (or $x40040 $x40926 (not (<= 0.0 (+ C S_1 ?x591 L_1)))) (or $x89 $x41353 $x41906 $x42571) (or $x89 (<= ?x41347 (+ A_0 ?x694)) (not $x43536)) (or $x1643 $x39336 $x41104) $x47749 (or $x89 (>= S_2 ?x9401) $x44313) (or $x89 $x41906 $x42571 $x42995) (or $x888 $x1600 $x40852 $x41810) (or $x89 $x41353 (<= (+ ?x837 ?x583 L_4 S_2) (- 5.0))) $x79864 (or $x89 $x40766 (not (<= 0.0 (+ C S_1 ?x591 L_1))) $x44169) (or $x1983 $x2383 $x40384 $x41032 $x41428 $x41937) (or $x2383 $x40384 $x41937 $x43117 $x43409 $x43517) $x80781 (or $x40040 $x41032 $x43517 (<= (+ L_1 ?x837 ?x591 S_0) 0.0)) (or $x40040 $x40444 $x41937 $x43517) (or $x89 $x40755 $x41239 $x41937 $x43409) (or $x2142 $x2971 $x41561 $x41906 $x42571) (or $x69 $x9404 $x41937) $x80611 (or $x89 (>= S_3 (+ A_3 ?x2127 C L_4 ?x583 A_2)) (not $x42557)) (or $x69 (<= S_1 ?x9401)) (or $x2971 $x41906 $x42557 $x42571 $x44216) (or $x2971 $x41906 $x42571 $x43536 $x44216) (or $x2971 $x41906 $x42571 $x43495 $x44216) $x80810 $x80255 (or $x89 (>= S_1 ?x41347) (not $x45680)) (or $x2971 $x41906 $x42571 $x44216 $x45680) (or $x69 $x41936 (<= S_0 ?x41347)) (or $x3398 $x6417 $x40444 $x40782 $x41300) (or $x3398 $x6417 $x40782 $x41300 $x41936) (or $x89 $x40444 $x40782 $x41428 $x41937) (or $x89 (not (<= 0.0 (+ C S_1 ?x591 L_1))) $x43517 $x44169) $x81720 (or $x2383 $x41936 $x43089 $x43117 $x43517 $x44169) (or $x89 $x6417 $x40782 $x41428 $x41936 $x43089) (or $x69 $x2142 $x41573) $x47164 $x81541 (or $x69 $x2142 (not $x40755) $x41300) $x80528 $x323 $x42 (not (>= (+ S_5 L_4 (* (- 1.0) A_5)) 0.0)) (<= (+ L_0 (* (- 1.0) A_0) S_0) 0.0) (<= (+ L_3 ?x335 ?x587 S_4) 0.0) (<= (+ ?x335 L_0 (* (- 1.0) A_0) S_1) 0.0) (<= (+ ?x318 (* (- 1.0) S_4) S_5) 0.0) (<= (+ ?x318 (* (- 1.0) S_2) S_3) 0.0) (<= (+ L_1 ?x595 ?x335 S_2) 0.0)))))))))))))))))))))))))))))))))))))))))))))))))))))))))))))))))))))))))))))))))))))))))))))))))))))))))))))))))))))))))))))))))))))))))))))))
(check-sat)
